13 13
9
3 3 3 6
3 4 3 9
3 5 10 0
3 6 7 0
3 7 0 6
3 8 10 5
4 3 6 6
4 4 6 9
7 6 0 0
% time elapsed: 0.13 s
% time elapsed: 0.13 s
%%%mzn-stat: initTime=0.000257
%%%mzn-stat: solveTime=0.036233
%%%mzn-stat: solutions=26
%%%mzn-stat: variables=19
%%%mzn-stat: propagators=14
%%%mzn-stat: propagations=63957
%%%mzn-stat: nodes=12361
%%%mzn-stat: failures=5914
%%%mzn-stat: restarts=40
%%%mzn-stat: peakDepth=29
%%%mzn-stat-end
